max:+ x0 + x1 + x2 + x3 + x4 + x5 ;

 /* sigma variables*/
x0 = 57.7875;
x1 = x0 + + 0.3 x2+ 0.3 x5+ 30.000000000000004;
x2 = 8;
x3 = x2 + + 0.24 x0+ 0.24 x5+ 24.000000000000004;
x4 = 8;
x5 = 78.1059;
